min: c;

c = 4.12395177418242 * u4_t1_h1 + 3.66719671198087 * u4_t1_h2 + 2.96191262494855 * u4_t1_h3 + 3.6396192661511 * u4_t1_h4 + 3.6396192661511 * u4_t10_h4 + 3.80177498176828 * u4_t1_h5 + 3.80177498176828 * u4_t10_h5 + 4.13340023043245 * u4_t1_h6 + 4.13340023043245 * u4_t10_h6 + 3.97670870816345 * u4_t1_h7 + 3.97670870816345 * u4_t10_h7 + 5.12629299347359 * u4_t1_h8 + 5.12629299347359 * u4_t9_h8 + 5.12629299347359 * u4_t10_h8 + 4.92563739912571 * u4_t9_h9 + 4.92563739912571 * u4_t10_h9 + 5.11246397153876 * u4_t9_h10 + 5.11246397153876 * u4_t10_h10 + 3.66291035820634 * u4_t2_h11 + 3.66291035820634 * u4_t4_h11 + 3.66291035820634 * u4_t9_h11 + 3.66291035820634 * u4_t10_h11 + 5.88302669084894 * u4_t2_h12 + 5.88302669084894 * u4_t3_h12 + 5.88302669084894 * u4_t4_h12 + 5.88302669084894 * u4_t8_h12 + 5.88302669084894 * u4_t9_h12 + 5.88302669084894 * u4_t10_h12 + 4.26147481273498 * u4_t2_h13 + 4.26147481273498 * u4_t3_h13 + 4.26147481273498 * u4_t4_h13 + 4.26147481273498 * u4_t8_h13 + 4.26147481273498 * u4_t9_h13 + 5.62176809051602 * u4_t2_h14 + 5.62176809051602 * u4_t3_h14 + 5.62176809051602 * u4_t4_h14 + 5.62176809051602 * u4_t8_h14 + 5.62176809051602 * u4_t9_h14 + 6.56028023699798 * u4_t2_h15 + 6.56028023699798 * u4_t3_h15 + 6.56028023699798 * u4_t4_h15 + 6.56028023699798 * u4_t8_h15 + 6.56028023699798 * u4_t9_h15 + 5.38933177245032 * u4_t2_h16 + 5.38933177245032 * u4_t3_h16 + 5.38933177245032 * u4_t4_h16 + 5.38933177245032 * u4_t5_h16 + 5.38933177245032 * u4_t8_h16 + 5.38933177245032 * u4_t9_h16 + 6.66371931868126 * u4_t2_h17 + 6.66371931868126 * u4_t3_h17 + 6.66371931868126 * u4_t5_h17 + 6.66371931868126 * u4_t8_h17 + 6.66371931868126 * u4_t9_h17 + 6.63763275771512 * u4_t2_h18 + 6.63763275771512 * u4_t3_h18 + 6.63763275771512 * u4_t5_h18 + 6.63763275771512 * u4_t8_h18 + 6.63763275771512 * u4_t9_h18 + 6.04250545630417 * u4_t2_h19 + 6.04250545630417 * u4_t3_h19 + 6.04250545630417 * u4_t6_h19 + 6.04250545630417 * u4_t8_h19 + 6.04250545630417 * u4_t9_h19 + 5.8553027673655 * u4_t2_h20 + 5.8553027673655 * u4_t6_h20 + 5.8553027673655 * u4_t9_h20 + 4.88448131645274 * u4_t6_h21 + 5.68982900029671 * u4_t6_h22 + 5.68982900029671 * u4_t7_h22 + 5.91935983429892 * u4_t6_h23 + 5.91935983429892 * u4_t7_h23;
0 <= u4_t1_h1 <= 1;
0 <= u4_t1_h2 <= 1;
0 <= u4_t1_h3 <= 1;
0 <= u4_t1_h4 <= 1;
0 <= u4_t1_h5 <= 1;
0 <= u4_t1_h6 <= 1;
0 <= u4_t1_h7 <= 1;
0 <= u4_t1_h8 <= 1;
u4_t1_h1 + u4_t1_h2 + u4_t1_h3 + u4_t1_h4 + u4_t1_h5 + u4_t1_h6 + u4_t1_h7 + u4_t1_h8 = 1;
0 <= u4_t2_h11 <= 1;
0 <= u4_t2_h12 <= 1;
0 <= u4_t2_h13 <= 1;
0 <= u4_t2_h14 <= 1;
0 <= u4_t2_h15 <= 1;
0 <= u4_t2_h16 <= 1;
0 <= u4_t2_h17 <= 1;
0 <= u4_t2_h18 <= 1;
0 <= u4_t2_h19 <= 1;
0 <= u4_t2_h20 <= 1;
u4_t2_h11 + u4_t2_h12 + u4_t2_h13 + u4_t2_h14 + u4_t2_h15 + u4_t2_h16 + u4_t2_h17 + u4_t2_h18 + u4_t2_h19 + u4_t2_h20 = 2;
0 <= u4_t3_h12 <= 1;
0 <= u4_t3_h13 <= 1;
0 <= u4_t3_h14 <= 1;
0 <= u4_t3_h15 <= 1;
0 <= u4_t3_h16 <= 1;
0 <= u4_t3_h17 <= 1;
0 <= u4_t3_h18 <= 1;
0 <= u4_t3_h19 <= 1;
u4_t3_h12 + u4_t3_h13 + u4_t3_h14 + u4_t3_h15 + u4_t3_h16 + u4_t3_h17 + u4_t3_h18 + u4_t3_h19 = 3;
0 <= u4_t4_h11 <= 1;
0 <= u4_t4_h12 <= 1;
0 <= u4_t4_h13 <= 1;
0 <= u4_t4_h14 <= 1;
0 <= u4_t4_h15 <= 1;
0 <= u4_t4_h16 <= 1;
u4_t4_h11 + u4_t4_h12 + u4_t4_h13 + u4_t4_h14 + u4_t4_h15 + u4_t4_h16 = 3;
0 <= u4_t5_h16 <= 1;
0 <= u4_t5_h17 <= 1;
0 <= u4_t5_h18 <= 1;
u4_t5_h16 + u4_t5_h17 + u4_t5_h18 = 1;
0 <= u4_t6_h19 <= 1;
0 <= u4_t6_h20 <= 1;
0 <= u4_t6_h21 <= 1;
0 <= u4_t6_h22 <= 1;
0 <= u4_t6_h23 <= 1;
u4_t6_h19 + u4_t6_h20 + u4_t6_h21 + u4_t6_h22 + u4_t6_h23 = 3;
0 <= u4_t7_h22 <= 1;
0 <= u4_t7_h23 <= 1;
u4_t7_h22 + u4_t7_h23 = 1;
0 <= u4_t8_h12 <= 1;
0 <= u4_t8_h13 <= 1;
0 <= u4_t8_h14 <= 1;
0 <= u4_t8_h15 <= 1;
0 <= u4_t8_h16 <= 1;
0 <= u4_t8_h17 <= 1;
0 <= u4_t8_h18 <= 1;
0 <= u4_t8_h19 <= 1;
u4_t8_h12 + u4_t8_h13 + u4_t8_h14 + u4_t8_h15 + u4_t8_h16 + u4_t8_h17 + u4_t8_h18 + u4_t8_h19 = 2;
0 <= u4_t9_h8 <= 1;
0 <= u4_t9_h9 <= 1;
0 <= u4_t9_h10 <= 1;
0 <= u4_t9_h11 <= 1;
0 <= u4_t9_h12 <= 1;
0 <= u4_t9_h13 <= 1;
0 <= u4_t9_h14 <= 1;
0 <= u4_t9_h15 <= 1;
0 <= u4_t9_h16 <= 1;
0 <= u4_t9_h17 <= 1;
0 <= u4_t9_h18 <= 1;
0 <= u4_t9_h19 <= 1;
0 <= u4_t9_h20 <= 1;
u4_t9_h8 + u4_t9_h9 + u4_t9_h10 + u4_t9_h11 + u4_t9_h12 + u4_t9_h13 + u4_t9_h14 + u4_t9_h15 + u4_t9_h16 + u4_t9_h17 + u4_t9_h18 + u4_t9_h19 + u4_t9_h20 = 2;
0 <= u4_t10_h4 <= 1;
0 <= u4_t10_h5 <= 1;
0 <= u4_t10_h6 <= 1;
0 <= u4_t10_h7 <= 1;
0 <= u4_t10_h8 <= 1;
0 <= u4_t10_h9 <= 1;
0 <= u4_t10_h10 <= 1;
0 <= u4_t10_h11 <= 1;
0 <= u4_t10_h12 <= 1;
u4_t10_h4 + u4_t10_h5 + u4_t10_h6 + u4_t10_h7 + u4_t10_h8 + u4_t10_h9 + u4_t10_h10 + u4_t10_h11 + u4_t10_h12 = 2;
